%SETS
JOBS     = 1..3;
MACHINES = 1..13;
SPEED    = 1;

time               = array3d(JOBS,MACHINES,1..SPEED,[93, 16, 17, 11, 84, 80, 88, 98, 81, 51, 80, 20, 67, 22, 95, 56, 47, 33, 79, 51, 61, 11, 65, 65, 65, 94, 71, 42, 49, 72, 15, 70, 70, 28, 21, 38, 42, 61, 49]);
energy             = array3d(JOBS,MACHINES,1..SPEED,[39, 85, 84, 89, 43, 44, 41, 37, 44, 60, 44, 81, 51, 80, 38, 57, 62, 71, 45, 60, 54, 89, 52, 52, 52, 39, 49, 65, 61, 48, 86, 49, 49, 75, 81, 68, 65, 54, 61]);
precedence         = array2d(JOBS,MACHINES,[4,1,3,8,12,2,11,6,0,7,9,5,10,8,7,0,4,1,10,2,11,3,6,12,5,9,12,11,10,5,9,6,0,1,4,3,8,2,7]);